Problem:    editoria2
Rows:       28
Columns:    48 (48 integer, 48 binary)
Non-zeros:  171
Status:     INTEGER OPTIMAL
Objective:  z = 12 (MAXimum)

   No.   Row name        Activity     Lower bound   Upper bound
------ ------------    ------------- ------------- -------------
     1 paginemax[1]               18                          44 
     2 paginemax[2]               22                          44 
     3 paginemax[3]               25                          44 
     4 assegnazione_unica[1]
                                   1                           1 
     5 assegnazione_unica[2]
                                   1                           1 
     6 assegnazione_unica[3]
                                   1                           1 
     7 assegnazione_unica[4]
                                   1                           1 
     8 assegnazione_unica[5]
                                   1                           1 
     9 assegnazione_unica[6]
                                   1                           1 
    10 assegnazione_unica[7]
                                   1                           1 
    11 assegnazione_unica[8]
                                   1                           1 
    12 assegnazione_unica[9]
                                   1                           1 
    13 assegnazione_unica[10]
                                   1                           1 
    14 assegnazione_unica[11]
                                   1                           1 
    15 assegnazione_unica[12]
                                   1                           1 
    16 utgenze[1]                  1             1             = 
    17 utgenze[2]                  1             1             = 
    18 utgenze[3]                  1             1             = 
    19 utgenze[4]                  1             1             = 
    20 utgenze[5]                  1             1             = 
    21 utgenze[6]                  1             1             = 
    22 utgenze[7]                  1             1             = 
    23 utgenze[8]                  1             1             = 
    24 utgenze[9]                  1             1             = 
    25 utgenze[10]                 1             1             = 
    26 utgenze[11]                 1             1             = 
    27 utgenze[12]                 1             1             = 
    28 z                          12                             

   No. Column name       Activity     Lower bound   Upper bound
------ ------------    ------------- ------------- -------------
     1 assign[1,1]  *              0             0             1 
     2 assign[2,1]  *              0             0             1 
     3 assign[3,1]  *              0             0             1 
     4 assign[4,1]  *              0             0             1 
     5 assign[5,1]  *              1             0             1 
     6 assign[6,1]  *              0             0             1 
     7 assign[7,1]  *              0             0             1 
     8 assign[8,1]  *              0             0             1 
     9 assign[9,1]  *              0             0             1 
    10 assign[10,1] *              0             0             1 
    11 assign[11,1] *              0             0             1 
    12 assign[12,1] *              0             0             1 
    13 assign[1,2]  *              1             0             1 
    14 assign[2,2]  *              0             0             1 
    15 assign[3,2]  *              1             0             1 
    16 assign[4,2]  *              0             0             1 
    17 assign[5,2]  *              0             0             1 
    18 assign[6,2]  *              0             0             1 
    19 assign[7,2]  *              0             0             1 
    20 assign[8,2]  *              0             0             1 
    21 assign[9,2]  *              0             0             1 
    22 assign[10,2] *              0             0             1 
    23 assign[11,2] *              0             0             1 
    24 assign[12,2] *              0             0             1 
    25 assign[1,3]  *              0             0             1 
    26 assign[2,3]  *              0             0             1 
    27 assign[3,3]  *              0             0             1 
    28 assign[4,3]  *              0             0             1 
    29 assign[5,3]  *              0             0             1 
    30 assign[6,3]  *              0             0             1 
    31 assign[7,3]  *              0             0             1 
    32 assign[8,3]  *              1             0             1 
    33 assign[9,3]  *              1             0             1 
    34 assign[10,3] *              0             0             1 
    35 assign[11,3] *              0             0             1 
    36 assign[12,3] *              0             0             1 
    37 assign[1,4]  *              0             0             1 
    38 assign[2,4]  *              1             0             1 
    39 assign[3,4]  *              0             0             1 
    40 assign[4,4]  *              1             0             1 
    41 assign[5,4]  *              0             0             1 
    42 assign[6,4]  *              1             0             1 
    43 assign[7,4]  *              1             0             1 
    44 assign[8,4]  *              0             0             1 
    45 assign[9,4]  *              0             0             1 
    46 assign[10,4] *              1             0             1 
    47 assign[11,4] *              1             0             1 
    48 assign[12,4] *              1             0             1 

Integer feasibility conditions:

KKT.PE: max.abs.err = 0.00e+00 on row 0
        max.rel.err = 0.00e+00 on row 0
        High quality

KKT.PB: max.abs.err = 0.00e+00 on row 0
        max.rel.err = 0.00e+00 on row 0
        High quality

End of output
